
Gurobi 9.0.3 (win64, Java) logging started Tue Feb 16 23:09:53 2021

Academic license - for non-commercial use only
Gurobi Optimizer version 9.0.3 build v9.0.3rc0 (win64)
Optimize a model with 50 rows, 13 columns and 50 nonzeros
Model fingerprint: 0x402c599d
Coefficient statistics:
  Matrix range     [1e+00, 1e+00]
  Objective range  [4e+02, 9e+02]
  Bounds range     [1e+00, 1e+00]
  RHS range        [1e+00, 1e+00]
Presolve removed 50 rows and 13 columns
Presolve time: 0.00s
Presolve: All rows and columns removed
Iteration    Objective       Primal Inf.    Dual Inf.      Time
       0    7.7824000e+03   0.000000e+00   0.000000e+00      0s

Solved in 0 iterations and 0.00 seconds
Optimal objective  7.782400000e+03
Gurobi Optimizer version 9.0.3 build v9.0.3rc0 (win64)
Optimize a model with 50 rows, 70 columns and 188 nonzeros
Coefficient statistics:
  Matrix range     [1e+00, 1e+00]
  Objective range  [6e+01, 9e+02]
  Bounds range     [1e+00, 1e+00]
  RHS range        [1e+00, 1e+00]
Iteration    Objective       Primal Inf.    Dual Inf.      Time
       0   -6.3293000e+04   4.600000e+02   0.000000e+00      0s
      11    7.7824000e+03   0.000000e+00   0.000000e+00      0s

Solved in 11 iterations and 0.00 seconds
Optimal objective  7.782400000e+03
Gurobi Optimizer version 9.0.3 build v9.0.3rc0 (win64)
Optimize a model with 50 rows, 128 columns and 328 nonzeros
Coefficient statistics:
  Matrix range     [1e+00, 1e+00]
  Objective range  [6e+01, 9e+02]
  Bounds range     [1e+00, 1e+00]
  RHS range        [1e+00, 1e+00]
Iteration    Objective       Primal Inf.    Dual Inf.      Time
       0   -6.3277800e+04   5.020000e+02   0.000000e+00      0s
      17    7.7824000e+03   0.000000e+00   0.000000e+00      0s

Solved in 17 iterations and 0.00 seconds
Optimal objective  7.782400000e+03
Gurobi Optimizer version 9.0.3 build v9.0.3rc0 (win64)
Optimize a model with 50 rows, 191 columns and 483 nonzeros
Coefficient statistics:
  Matrix range     [1e+00, 1e+00]
  Objective range  [6e+01, 9e+02]
  Bounds range     [1e+00, 1e+00]
  RHS range        [1e+00, 1e+00]
Iteration    Objective       Primal Inf.    Dual Inf.      Time
       0   -6.9044800e+04   5.850000e+02   0.000000e+00      0s
      22    7.7824000e+03   0.000000e+00   0.000000e+00      0s

Solved in 22 iterations and 0.00 seconds
Optimal objective  7.782400000e+03
Gurobi Optimizer version 9.0.3 build v9.0.3rc0 (win64)
Optimize a model with 50 rows, 247 columns and 620 nonzeros
Coefficient statistics:
  Matrix range     [1e+00, 1e+00]
  Objective range  [6e+01, 9e+02]
  Bounds range     [1e+00, 1e+00]
  RHS range        [1e+00, 1e+00]
Iteration    Objective       Primal Inf.    Dual Inf.      Time
       0   -5.1423400e+04   5.610000e+02   0.000000e+00      0s
      54    6.7906000e+03   0.000000e+00   0.000000e+00      0s

Solved in 54 iterations and 0.00 seconds
Optimal objective  6.790600000e+03
Gurobi Optimizer version 9.0.3 build v9.0.3rc0 (win64)
Optimize a model with 50 rows, 295 columns and 740 nonzeros
Coefficient statistics:
  Matrix range     [1e+00, 1e+00]
  Objective range  [6e+01, 9e+02]
  Bounds range     [1e+00, 1e+00]
  RHS range        [1e+00, 1e+00]
Iteration    Objective       Primal Inf.    Dual Inf.      Time
       0   -2.7808700e+04   5.920000e+02   0.000000e+00      0s
      64    5.9916000e+03   0.000000e+00   0.000000e+00      0s

Solved in 64 iterations and 0.00 seconds
Optimal objective  5.991600000e+03
Gurobi Optimizer version 9.0.3 build v9.0.3rc0 (win64)
Optimize a model with 50 rows, 350 columns and 880 nonzeros
Coefficient statistics:
  Matrix range     [1e+00, 1e+00]
  Objective range  [3e+01, 9e+02]
  Bounds range     [1e+00, 1e+00]
  RHS range        [1e+00, 1e+00]
Iteration    Objective       Primal Inf.    Dual Inf.      Time
       0   -1.2552950e+04   8.175000e+02   0.000000e+00      0s
      54    5.7161000e+03   0.000000e+00   0.000000e+00      0s

Solved in 54 iterations and 0.00 seconds
Optimal objective  5.716100000e+03
Gurobi Optimizer version 9.0.3 build v9.0.3rc0 (win64)
Optimize a model with 50 rows, 400 columns and 1007 nonzeros
Coefficient statistics:
  Matrix range     [1e+00, 1e+00]
  Objective range  [3e+01, 9e+02]
  Bounds range     [1e+00, 1e+00]
  RHS range        [1e+00, 1e+00]
Iteration    Objective       Primal Inf.    Dual Inf.      Time
       0   -6.7139750e+03   6.487500e+02   0.000000e+00      0s
      86    5.1807500e+03   0.000000e+00   0.000000e+00      0s

Solved in 86 iterations and 0.00 seconds
Optimal objective  5.180750000e+03
Gurobi Optimizer version 9.0.3 build v9.0.3rc0 (win64)
Optimize a model with 50 rows, 450 columns and 1142 nonzeros
Coefficient statistics:
  Matrix range     [1e+00, 1e+00]
  Objective range  [3e+01, 9e+02]
  Bounds range     [1e+00, 1e+00]
  RHS range        [1e+00, 1e+00]
Iteration    Objective       Primal Inf.    Dual Inf.      Time
       0   -3.7617000e+03   7.560000e+02   0.000000e+00      0s
      82    4.7063250e+03   0.000000e+00   0.000000e+00      0s

Solved in 82 iterations and 0.00 seconds
Optimal objective  4.706325000e+03
Gurobi Optimizer version 9.0.3 build v9.0.3rc0 (win64)
Optimize a model with 50 rows, 496 columns and 1269 nonzeros
Coefficient statistics:
  Matrix range     [1e+00, 1e+00]
  Objective range  [3e+01, 9e+02]
  Bounds range     [1e+00, 1e+00]
  RHS range        [1e+00, 1e+00]
Iteration    Objective       Primal Inf.    Dual Inf.      Time
       0   -1.6257500e+02   3.420000e+02   0.000000e+00      0s
      72    4.4352667e+03   0.000000e+00   0.000000e+00      0s

Solved in 72 iterations and 0.00 seconds
Optimal objective  4.435266667e+03
Gurobi Optimizer version 9.0.3 build v9.0.3rc0 (win64)
Optimize a model with 50 rows, 533 columns and 1375 nonzeros
Coefficient statistics:
  Matrix range     [1e+00, 1e+00]
  Objective range  [3e+01, 9e+02]
  Bounds range     [1e+00, 1e+00]
  RHS range        [1e+00, 1e+00]
Iteration    Objective       Primal Inf.    Dual Inf.      Time
       0    1.0037667e+03   3.151167e+02   0.000000e+00      0s
      73    4.1545799e+03   0.000000e+00   0.000000e+00      0s

Solved in 73 iterations and 0.00 seconds
Optimal objective  4.154579885e+03
Gurobi Optimizer version 9.0.3 build v9.0.3rc0 (win64)
Optimize a model with 50 rows, 558 columns and 1457 nonzeros
Coefficient statistics:
  Matrix range     [1e+00, 1e+00]
  Objective range  [3e+01, 9e+02]
  Bounds range     [1e+00, 1e+00]
  RHS range        [1e+00, 1e+00]
Iteration    Objective       Primal Inf.    Dual Inf.      Time
       0    2.4163557e+03   9.425575e+01   0.000000e+00      0s
      57    3.9920742e+03   0.000000e+00   0.000000e+00      0s

Solved in 57 iterations and 0.00 seconds
Optimal objective  3.992074167e+03
Gurobi Optimizer version 9.0.3 build v9.0.3rc0 (win64)
Optimize a model with 50 rows, 586 columns and 1548 nonzeros
Coefficient statistics:
  Matrix range     [1e+00, 1e+00]
  Objective range  [3e+01, 9e+02]
  Bounds range     [1e+00, 1e+00]
  RHS range        [1e+00, 1e+00]
Iteration    Objective       Primal Inf.    Dual Inf.      Time
       0    2.5379048e+03   2.762857e+02   0.000000e+00      0s
      29    3.9029957e+03   0.000000e+00   0.000000e+00      0s

Solved in 29 iterations and 0.00 seconds
Optimal objective  3.902995714e+03
Gurobi Optimizer version 9.0.3 build v9.0.3rc0 (win64)
Optimize a model with 50 rows, 611 columns and 1630 nonzeros
Coefficient statistics:
  Matrix range     [1e+00, 1e+00]
  Objective range  [3e+01, 9e+02]
  Bounds range     [1e+00, 1e+00]
  RHS range        [1e+00, 1e+00]
Iteration    Objective       Primal Inf.    Dual Inf.      Time
       0    2.1309929e+03   2.861429e+02   0.000000e+00      0s
      29    3.8468883e+03   0.000000e+00   0.000000e+00      0s

Solved in 29 iterations and 0.00 seconds
Optimal objective  3.846888333e+03
Gurobi Optimizer version 9.0.3 build v9.0.3rc0 (win64)
Optimize a model with 50 rows, 638 columns and 1717 nonzeros
Coefficient statistics:
  Matrix range     [1e+00, 1e+00]
  Objective range  [3e+01, 9e+02]
  Bounds range     [1e+00, 1e+00]
  RHS range        [1e+00, 1e+00]
Iteration    Objective       Primal Inf.    Dual Inf.      Time
       0    2.7586133e+03   7.503333e+01   0.000000e+00      0s
      43    3.7430533e+03   0.000000e+00   0.000000e+00      0s

Solved in 43 iterations and 0.00 seconds
Optimal objective  3.743053333e+03
Gurobi Optimizer version 9.0.3 build v9.0.3rc0 (win64)
Optimize a model with 50 rows, 660 columns and 1788 nonzeros
Coefficient statistics:
  Matrix range     [1e+00, 1e+00]
  Objective range  [3e+01, 9e+02]
  Bounds range     [1e+00, 1e+00]
  RHS range        [1e+00, 1e+00]
Iteration    Objective       Primal Inf.    Dual Inf.      Time
       0    3.1065867e+03   1.318500e+02   0.000000e+00      0s
      22    3.7315233e+03   0.000000e+00   0.000000e+00      0s

Solved in 22 iterations and 0.00 seconds
Optimal objective  3.731523333e+03
Gurobi Optimizer version 9.0.3 build v9.0.3rc0 (win64)
Optimize a model with 50 rows, 675 columns and 1839 nonzeros
Coefficient statistics:
  Matrix range     [1e+00, 1e+00]
  Objective range  [3e+01, 9e+02]
  Bounds range     [1e+00, 1e+00]
  RHS range        [1e+00, 1e+00]
Iteration    Objective       Primal Inf.    Dual Inf.      Time
       0    3.3314967e+03   5.560000e+01   0.000000e+00      0s
      33    3.6853474e+03   0.000000e+00   0.000000e+00      0s

Solved in 33 iterations and 0.00 seconds
Optimal objective  3.685347407e+03
Gurobi Optimizer version 9.0.3 build v9.0.3rc0 (win64)
Optimize a model with 50 rows, 692 columns and 1897 nonzeros
Coefficient statistics:
  Matrix range     [1e+00, 1e+00]
  Objective range  [3e+01, 9e+02]
  Bounds range     [1e+00, 1e+00]
  RHS range        [1e+00, 1e+00]
Iteration    Objective       Primal Inf.    Dual Inf.      Time
       0    3.1498310e+03   8.276296e+01   0.000000e+00      0s
      32    3.6027800e+03   0.000000e+00   0.000000e+00      0s

Solved in 32 iterations and 0.00 seconds
Optimal objective  3.602780000e+03
Gurobi Optimizer version 9.0.3 build v9.0.3rc0 (win64)
Optimize a model with 50 rows, 706 columns and 1945 nonzeros
Coefficient statistics:
  Matrix range     [1e+00, 1e+00]
  Objective range  [3e+01, 9e+02]
  Bounds range     [1e+00, 1e+00]
  RHS range        [1e+00, 1e+00]
Iteration    Objective       Primal Inf.    Dual Inf.      Time
       0    3.1408015e+03   1.887026e+02   0.000000e+00      0s
      33    3.6027400e+03   0.000000e+00   0.000000e+00      0s

Solved in 33 iterations and 0.00 seconds
Optimal objective  3.602740000e+03
Gurobi Optimizer version 9.0.3 build v9.0.3rc0 (win64)
Optimize a model with 50 rows, 715 columns and 1979 nonzeros
Coefficient statistics:
  Matrix range     [1e+00, 1e+00]
  Objective range  [3e+01, 9e+02]
  Bounds range     [1e+00, 1e+00]
  RHS range        [1e+00, 1e+00]
Iteration    Objective       Primal Inf.    Dual Inf.      Time
       0    3.2858600e+03   1.391000e+02   0.000000e+00      0s
      34    3.5762628e+03   0.000000e+00   0.000000e+00      0s

Solved in 34 iterations and 0.00 seconds
Optimal objective  3.576262778e+03
Gurobi Optimizer version 9.0.3 build v9.0.3rc0 (win64)
Optimize a model with 50 rows, 726 columns and 2018 nonzeros
Coefficient statistics:
  Matrix range     [1e+00, 1e+00]
  Objective range  [3e+01, 9e+02]
  Bounds range     [1e+00, 1e+00]
  RHS range        [1e+00, 1e+00]
Iteration    Objective       Primal Inf.    Dual Inf.      Time
       0    3.1955169e+03   5.990833e+01   0.000000e+00      0s
      23    3.5528510e+03   0.000000e+00   0.000000e+00      0s

Solved in 23 iterations and 0.00 seconds
Optimal objective  3.552851000e+03
Gurobi Optimizer version 9.0.3 build v9.0.3rc0 (win64)
Optimize a model with 50 rows, 732 columns and 2042 nonzeros
Coefficient statistics:
  Matrix range     [1e+00, 1e+00]
  Objective range  [3e+01, 9e+02]
  Bounds range     [1e+00, 1e+00]
  RHS range        [1e+00, 1e+00]
Iteration    Objective       Primal Inf.    Dual Inf.      Time
       0    3.3048627e+03   2.685333e+01   0.000000e+00      0s
      20    3.5467510e+03   0.000000e+00   0.000000e+00      0s

Solved in 20 iterations and 0.00 seconds
Optimal objective  3.546751000e+03
Gurobi Optimizer version 9.0.3 build v9.0.3rc0 (win64)
Optimize a model with 50 rows, 738 columns and 2066 nonzeros
Coefficient statistics:
  Matrix range     [1e+00, 1e+00]
  Objective range  [3e+01, 9e+02]
  Bounds range     [1e+00, 1e+00]
  RHS range        [1e+00, 1e+00]
Iteration    Objective       Primal Inf.    Dual Inf.      Time
       0    3.3951310e+03   2.701000e+01   0.000000e+00      0s
      23    3.5388200e+03   0.000000e+00   0.000000e+00      0s

Solved in 23 iterations and 0.00 seconds
Optimal objective  3.538820000e+03
Gurobi Optimizer version 9.0.3 build v9.0.3rc0 (win64)
Optimize a model with 50 rows, 745 columns and 2094 nonzeros
Coefficient statistics:
  Matrix range     [1e+00, 1e+00]
  Objective range  [3e+01, 9e+02]
  Bounds range     [1e+00, 1e+00]
  RHS range        [1e+00, 1e+00]
Iteration    Objective       Primal Inf.    Dual Inf.      Time
       0    3.3330400e+03   1.740000e+01   0.000000e+00      0s
      21    3.4981449e+03   0.000000e+00   0.000000e+00      0s

Solved in 21 iterations and 0.00 seconds
Optimal objective  3.498144853e+03
Gurobi Optimizer version 9.0.3 build v9.0.3rc0 (win64)
Optimize a model with 50 rows, 754 columns and 2128 nonzeros
Coefficient statistics:
  Matrix range     [1e+00, 1e+00]
  Objective range  [3e+01, 9e+02]
  Bounds range     [1e+00, 1e+00]
  RHS range        [1e+00, 1e+00]
Iteration    Objective       Primal Inf.    Dual Inf.      Time
       0    3.3028625e+03   2.825000e+01   0.000000e+00      0s
      28    3.4580567e+03   0.000000e+00   0.000000e+00      0s

Solved in 28 iterations and 0.00 seconds
Optimal objective  3.458056667e+03
Gurobi Optimizer version 9.0.3 build v9.0.3rc0 (win64)
Optimize a model with 50 rows, 761 columns and 2156 nonzeros
Coefficient statistics:
  Matrix range     [1e+00, 1e+00]
  Objective range  [3e+01, 9e+02]
  Bounds range     [1e+00, 1e+00]
  RHS range        [1e+00, 1e+00]
Iteration    Objective       Primal Inf.    Dual Inf.      Time
       0    3.3163767e+03   3.930000e+01   0.000000e+00      0s
      23    3.4202375e+03   0.000000e+00   0.000000e+00      0s

Solved in 23 iterations and 0.00 seconds
Optimal objective  3.420237500e+03
Gurobi Optimizer version 9.0.3 build v9.0.3rc0 (win64)
Optimize a model with 50 rows, 769 columns and 2187 nonzeros
Coefficient statistics:
  Matrix range     [1e+00, 1e+00]
  Objective range  [3e+01, 9e+02]
  Bounds range     [1e+00, 1e+00]
  RHS range        [1e+00, 1e+00]
Iteration    Objective       Primal Inf.    Dual Inf.      Time
       0    3.2021500e+03   5.766667e+01   0.000000e+00      0s
      15    3.4153056e+03   0.000000e+00   0.000000e+00      0s

Solved in 15 iterations and 0.00 seconds
Optimal objective  3.415305556e+03
Gurobi Optimizer version 9.0.3 build v9.0.3rc0 (win64)
Optimize a model with 50 rows, 774 columns and 2207 nonzeros
Coefficient statistics:
  Matrix range     [1e+00, 1e+00]
  Objective range  [3e+01, 9e+02]
  Bounds range     [1e+00, 1e+00]
  RHS range        [1e+00, 1e+00]
Iteration    Objective       Primal Inf.    Dual Inf.      Time
       0    3.3051167e+03   3.316667e+01   0.000000e+00      0s
      13    3.4153056e+03   0.000000e+00   0.000000e+00      0s

Solved in 13 iterations and 0.00 seconds
Optimal objective  3.415305556e+03
Gurobi Optimizer version 9.0.3 build v9.0.3rc0 (win64)
Optimize a model with 50 rows, 781 columns and 2235 nonzeros
Coefficient statistics:
  Matrix range     [1e+00, 1e+00]
  Objective range  [3e+01, 9e+02]
  Bounds range     [1e+00, 1e+00]
  RHS range        [1e+00, 1e+00]
Iteration    Objective       Primal Inf.    Dual Inf.      Time
       0    3.2941875e+03   2.075000e+01   0.000000e+00      0s
      18    3.4098333e+03   0.000000e+00   0.000000e+00      0s

Solved in 18 iterations and 0.00 seconds
Optimal objective  3.409833333e+03
Gurobi Optimizer version 9.0.3 build v9.0.3rc0 (win64)
Optimize a model with 50 rows, 791 columns and 2271 nonzeros
Coefficient statistics:
  Matrix range     [1e+00, 1e+00]
  Objective range  [3e+01, 9e+02]
  Bounds range     [1e+00, 1e+00]
  RHS range        [1e+00, 1e+00]
Iteration    Objective       Primal Inf.    Dual Inf.      Time
       0    3.2700083e+03   6.775000e+01   0.000000e+00      0s
      17    3.4018375e+03   0.000000e+00   0.000000e+00      0s

Solved in 17 iterations and 0.00 seconds
Optimal objective  3.401837500e+03
Gurobi Optimizer version 9.0.3 build v9.0.3rc0 (win64)
Optimize a model with 50 rows, 796 columns and 2291 nonzeros
Coefficient statistics:
  Matrix range     [1e+00, 1e+00]
  Objective range  [3e+01, 9e+02]
  Bounds range     [1e+00, 1e+00]
  RHS range        [1e+00, 1e+00]
Iteration    Objective       Primal Inf.    Dual Inf.      Time
       0    3.3274875e+03   1.087500e+01   0.000000e+00      0s
       9    3.4018375e+03   0.000000e+00   0.000000e+00      0s

Solved in 9 iterations and 0.00 seconds
Optimal objective  3.401837500e+03
Gurobi Optimizer version 9.0.3 build v9.0.3rc0 (win64)
Optimize a model with 50 rows, 801 columns and 2311 nonzeros
Coefficient statistics:
  Matrix range     [1e+00, 1e+00]
  Objective range  [3e+01, 9e+02]
  Bounds range     [1e+00, 1e+00]
  RHS range        [1e+00, 1e+00]
Iteration    Objective       Primal Inf.    Dual Inf.      Time
       0    3.3663500e+03   1.450000e+01   0.000000e+00      0s
       7    3.3977625e+03   0.000000e+00   0.000000e+00      0s

Solved in 7 iterations and 0.00 seconds
Optimal objective  3.397762500e+03
Gurobi Optimizer version 9.0.3 build v9.0.3rc0 (win64)
Optimize a model with 50 rows, 806 columns and 2331 nonzeros
Coefficient statistics:
  Matrix range     [1e+00, 1e+00]
  Objective range  [3e+01, 9e+02]
  Bounds range     [1e+00, 1e+00]
  RHS range        [1e+00, 1e+00]
Iteration    Objective       Primal Inf.    Dual Inf.      Time
       0    3.3528625e+03   7.250000e+00   0.000000e+00      0s
       7    3.3977625e+03   0.000000e+00   0.000000e+00      0s

Solved in 7 iterations and 0.00 seconds
Optimal objective  3.397762500e+03
Gurobi Optimizer version 9.0.3 build v9.0.3rc0 (win64)
Optimize a model with 50 rows, 809 columns and 2343 nonzeros
Coefficient statistics:
  Matrix range     [1e+00, 1e+00]
  Objective range  [3e+01, 9e+02]
  Bounds range     [1e+00, 1e+00]
  RHS range        [1e+00, 1e+00]
Iteration    Objective       Primal Inf.    Dual Inf.      Time
       0    3.3817750e+03   1.225000e+01   0.000000e+00      0s
       5    3.3977625e+03   0.000000e+00   0.000000e+00      0s

Solved in 5 iterations and 0.00 seconds
Optimal objective  3.397762500e+03
Gurobi Optimizer version 9.0.3 build v9.0.3rc0 (win64)
Optimize a model with 50 rows, 813 columns and 2359 nonzeros
Coefficient statistics:
  Matrix range     [1e+00, 1e+00]
  Objective range  [3e+01, 9e+02]
  Bounds range     [1e+00, 1e+00]
  RHS range        [1e+00, 1e+00]
Iteration    Objective       Primal Inf.    Dual Inf.      Time
       0    3.3829167e+03   1.391667e+01   0.000000e+00      0s
       3    3.3977625e+03   0.000000e+00   0.000000e+00      0s

Solved in 3 iterations and 0.00 seconds
Optimal objective  3.397762500e+03
Gurobi Optimizer version 9.0.3 build v9.0.3rc0 (win64)
Optimize a model with 50 rows, 817 columns and 2375 nonzeros
Coefficient statistics:
  Matrix range     [1e+00, 1e+00]
  Objective range  [3e+01, 9e+02]
  Bounds range     [1e+00, 1e+00]
  RHS range        [1e+00, 1e+00]
Iteration    Objective       Primal Inf.    Dual Inf.      Time
       0    3.3873125e+03   1.325000e+01   0.000000e+00      0s
       3    3.3977625e+03   0.000000e+00   0.000000e+00      0s

Solved in 3 iterations and 0.00 seconds
Optimal objective  3.397762500e+03
Gurobi Optimizer version 9.0.3 build v9.0.3rc0 (win64)
Optimize a model with 50 rows, 819 columns and 2383 nonzeros
Coefficient statistics:
  Matrix range     [1e+00, 1e+00]
  Objective range  [3e+01, 9e+02]
  Bounds range     [1e+00, 1e+00]
  RHS range        [1e+00, 1e+00]
Iteration    Objective       Primal Inf.    Dual Inf.      Time
       0    3.3896375e+03   7.875000e+00   0.000000e+00      0s
       3    3.3964125e+03   0.000000e+00   0.000000e+00      0s

Solved in 3 iterations and 0.00 seconds
Optimal objective  3.396412500e+03
Gurobi Optimizer version 9.0.3 build v9.0.3rc0 (win64)
Optimize a model with 50 rows, 820 columns and 2387 nonzeros
Coefficient statistics:
  Matrix range     [1e+00, 1e+00]
  Objective range  [3e+01, 9e+02]
  Bounds range     [1e+00, 1e+00]
  RHS range        [1e+00, 1e+00]
Iteration    Objective       Primal Inf.    Dual Inf.      Time
       0    3.3963125e+03   1.916667e+00   0.000000e+00      0s
       1    3.3964000e+03   0.000000e+00   0.000000e+00      0s

Solved in 1 iterations and 0.00 seconds
Optimal objective  3.396400000e+03
